c CNF SAT conversion from Graph Coloring
c Input File name: graph_9_9.txt
c Number of Colors  5
c Conversion type = Standard
c Conversion Code: S--
p cnf 45 124
1 2 3 4 5 0 
6 7 8 9 10 0 
11 12 13 14 15 0 
16 17 18 19 20 0 
21 22 23 24 25 0 
26 27 28 29 30 0 
31 32 33 34 35 0 
36 37 38 39 40 0 
41 42 43 44 45 0 
-1 -6 0 
-2 -7 0 
-3 -8 0 
-4 -9 0 
-5 -10 0 
-1 -11 0 
-2 -12 0 
-3 -13 0 
-4 -14 0 
-5 -15 0 
-1 -16 0 
-2 -17 0 
-3 -18 0 
-4 -19 0 
-5 -20 0 
-1 -21 0 
-2 -22 0 
-3 -23 0 
-4 -24 0 
-5 -25 0 
-1 -26 0 
-2 -27 0 
-3 -28 0 
-4 -29 0 
-5 -30 0 
-1 -31 0 
-2 -32 0 
-3 -33 0 
-4 -34 0 
-5 -35 0 
-6 -16 0 
-7 -17 0 
-8 -18 0 
-9 -19 0 
-10 -20 0 
-6 -21 0 
-7 -22 0 
-8 -23 0 
-9 -24 0 
-10 -25 0 
-6 -26 0 
-7 -27 0 
-8 -28 0 
-9 -29 0 
-10 -30 0 
-6 -31 0 
-7 -32 0 
-8 -33 0 
-9 -34 0 
-10 -35 0 
-6 -36 0 
-7 -37 0 
-8 -38 0 
-9 -39 0 
-10 -40 0 
-11 -16 0 
-12 -17 0 
-13 -18 0 
-14 -19 0 
-15 -20 0 
-11 -21 0 
-12 -22 0 
-13 -23 0 
-14 -24 0 
-15 -25 0 
-11 -31 0 
-12 -32 0 
-13 -33 0 
-14 -34 0 
-15 -35 0 
-11 -36 0 
-12 -37 0 
-13 -38 0 
-14 -39 0 
-15 -40 0 
-16 -21 0 
-17 -22 0 
-18 -23 0 
-19 -24 0 
-20 -25 0 
-16 -26 0 
-17 -27 0 
-18 -28 0 
-19 -29 0 
-20 -30 0 
-16 -36 0 
-17 -37 0 
-18 -38 0 
-19 -39 0 
-20 -40 0 
-21 -26 0 
-22 -27 0 
-23 -28 0 
-24 -29 0 
-25 -30 0 
-21 -36 0 
-22 -37 0 
-23 -38 0 
-24 -39 0 
-25 -40 0 
-26 -31 0 
-27 -32 0 
-28 -33 0 
-29 -34 0 
-30 -35 0 
-26 -36 0 
-27 -37 0 
-28 -38 0 
-29 -39 0 
-30 -40 0 
-31 -36 0 
-32 -37 0 
-33 -38 0 
-34 -39 0 
-35 -40 0 
